lbl,CUST NO.,READY TIME,XCOORD.,YCOORD.,DEMAND,DUE DATE,SERVICE TIME
6,11,45,55,100,22,55,10
6,28,140,39,112,26,150,10
6,260,148,40,130,1,158,10
6,42,183,48,106,23,193,10
6,334,207,51,112,13,217,10
6,54,211,45,95,15,221,10
6,40,227,49,99,32,237,10
6,227,229,40,115,41,239,10
6,209,251,36,104,11,261,10
6,398,284,29,121,46,294,10
6,154,306,27,97,30,316,10
6,57,342,38,101,10,352,10
6,60,383,48,94,15,393,10
6,9,512,40,95,25,522,10
6,323,729,47,118,23,739,10
